sat
(= |goto_symex::&92;guard#1| true)
(= |goto_symex::&92;guard#2| false)
(= |memory_model::choice_rf_1_35_0_10_T_0| false)
(= |memory_model::choice_rf_1_35_2_17_T_1| false)
(= |memory_model::choice_rf_1_35_3_18_T_2| true)
(= |memory_model::choice_rf_2_16_0_10_T_3| true)
(= |memory_model::choice_rf_2_16_1_36_T_4| false)
(= |memory_model::choice_rf_2_16_3_18_T_5| false)
(= |memory_model::choice_rf_3_17_0_10_T_6| true)
(= |memory_model::choice_rf_3_17_1_36_T_7| false)
(= |memory_model::choice_rf_3_17_2_17_T_8| false)
(= |memory_model::choice_rf_0_41_0_8_T_9| false)
(= |memory_model::choice_rf_0_41_0_37_T_10| true)
(= |memory_model::choice_rf_0_46_0_8_T_11| false)
(= |memory_model::choice_rf_0_46_0_37_T_12| false)
(= |memory_model::choice_rf_0_46_0_42_T_13| true)
(= |memory_model::choice_rf_0_76_0_17_F_14| false)
(= |memory_model::choice_rf_0_76_1_20_F_15| false)
(= |memory_model::choice_rf_0_76_2_0_F_16| true)
(= |memory_model::choice_rf_1_19_0_17_F_17| false)
(= |memory_model::choice_rf_1_19_2_0_F_18| false)
(= |memory_model::choice_rf_0_50_0_11_F_19| false)
(= |memory_model::choice_rf_0_50_1_34_F_20| true)
(= |memory_model::choice_rf_0_50_2_15_F_21| false)
(= |memory_model::choice_rf_0_50_3_16_F_22| false)
(= |memory_model::choice_rf_1_33_0_11_F_23| false)
(= |memory_model::choice_rf_1_33_2_15_F_24| false)
(= |memory_model::choice_rf_1_33_3_16_F_25| true)
(= |memory_model::choice_rf_2_14_0_11_F_26| true)
(= |memory_model::choice_rf_2_14_1_34_F_27| false)
(= |memory_model::choice_rf_2_14_3_16_F_28| false)
(= |memory_model::choice_rf_3_15_0_11_F_29| false)
(= |memory_model::choice_rf_3_15_1_34_F_30| false)
(= |memory_model::choice_rf_3_15_2_15_F_31| true)
(= |memory_model::choice_rf_0_70_0_12_F_32| false)
(= |memory_model::choice_rf_0_70_3_1_F_33| true)
(= |memory_model::choice_rf_0_52_0_13_F_34| false)
(= |memory_model::choice_rf_0_52_0_51_F_35| true)
(= |memory_model::choice_rf_0_65_0_14_F_36| false)
(= |memory_model::choice_rf_0_91_0_14_F_37| false)
(= |memory_model::choice_rf_0_91_0_88_F_38| true)
(= |memory_model::choice_rf_0_92_0_14_F_39| false)
(= |memory_model::choice_rf_0_92_0_88_F_40| true)
(= |memory_model::choice_rf_3_0_0_18_F_41| false)
(= |memory_model::choice_rf_3_0_2_1_F_42| true)
(= |memory_model::choice_rf_0_53_0_19_F_43| false)
(= |memory_model::choice_rf_0_53_1_32_F_44| true)
(= |memory_model::choice_rf_0_53_2_13_F_45| false)
(= |memory_model::choice_rf_0_53_3_2_F_46| false)
(= |memory_model::choice_rf_0_53_3_14_F_47| false)
(= |memory_model::choice_rf_0_69_0_19_F_48| false)
(= |memory_model::choice_rf_0_69_0_64_F_49| true)
(= |memory_model::choice_rf_0_69_1_32_F_50| false)
(= |memory_model::choice_rf_0_69_2_13_F_51| false)
(= |memory_model::choice_rf_0_69_3_2_F_52| false)
(= |memory_model::choice_rf_0_69_3_14_F_53| false)
(= |memory_model::choice_rf_1_21_0_19_F_54| false)
(= |memory_model::choice_rf_1_21_0_64_F_55| false)
(= |memory_model::choice_rf_1_21_0_85_F_56| false)
(= |memory_model::choice_rf_1_21_2_13_F_57| false)
(= |memory_model::choice_rf_1_21_3_2_F_58| false)
(= |memory_model::choice_rf_1_21_3_14_F_59| true)
(= |memory_model::choice_rf_2_2_0_19_F_60| true)
(= |memory_model::choice_rf_2_2_0_64_F_61| false)
(= |memory_model::choice_rf_2_2_0_85_F_62| false)
(= |memory_model::choice_rf_2_2_1_32_F_63| false)
(= |memory_model::choice_rf_2_2_3_2_F_64| false)
(= |memory_model::choice_rf_2_2_3_14_F_65| false)
(= |memory_model::choice_rf_3_7_0_19_F_66| false)
(= |memory_model::choice_rf_3_7_0_64_F_67| false)
(= |memory_model::choice_rf_3_7_0_85_F_68| false)
(= |memory_model::choice_rf_3_7_1_32_F_69| false)
(= |memory_model::choice_rf_3_7_2_13_F_70| false)
(= |memory_model::choice_rf_3_7_3_2_F_71| true)
(= |memory_model::choice_rf_0_68_0_20_F_72| false)
(= |memory_model::choice_rf_0_71_0_21_F_73| false)
(= |memory_model::choice_rf_0_58_0_22_F_74| true)
(= |memory_model::choice_rf_0_73_0_22_F_75| false)
(= |memory_model::choice_rf_0_73_0_61_F_76| true)
(= |memory_model::choice_rf_1_7_0_22_F_77| true)
(= |memory_model::choice_rf_1_7_0_61_F_78| false)
(= |memory_model::choice_rf_1_7_0_80_F_79| false)
(= |memory_model::choice_rf_1_5_0_23_F_80| true)
(= |memory_model::choice_rf_1_26_0_23_F_81| false)
(= |memory_model::choice_rf_1_26_1_10_F_82| true)
(= |memory_model::choice_rf_1_3_0_24_F_83| true)
(= |memory_model::choice_rf_1_3_2_9_F_84| false)
(= |memory_model::choice_rf_2_7_0_24_F_85| true)
(= |memory_model::choice_rf_1_1_0_25_F_86| true)
(= |memory_model::choice_rf_1_1_3_10_F_87| false)
(= |memory_model::choice_rf_3_8_0_25_F_88| true)
(= |memory_model::choice_rf_0_57_0_26_F_89| false)
(= |memory_model::choice_rf_0_57_1_12_F_90| true)
(= |memory_model::choice_rf_0_74_0_26_F_91| false)
(= |memory_model::choice_rf_0_74_0_60_F_92| true)
(= |memory_model::choice_rf_0_74_1_12_F_93| false)
(= |memory_model::choice_rf_1_6_0_26_F_94| false)
(= |memory_model::choice_rf_1_6_0_60_F_95| false)
(= |memory_model::choice_rf_1_6_0_79_F_96| false)
(= |memory_model::choice_rf_1_4_0_27_F_97| false)
(= |memory_model::choice_rf_1_23_0_27_F_98| false)
(= |memory_model::choice_rf_1_23_1_11_F_99| true)
(= |memory_model::choice_rf_1_2_0_28_F_100| false)
(= |memory_model::choice_rf_1_2_2_11_F_101| false)
(= |memory_model::choice_rf_2_4_0_28_F_102| false)
(= |memory_model::choice_rf_2_4_1_14_F_103| true)
(= |memory_model::choice_rf_1_0_0_29_F_104| false)
(= |memory_model::choice_rf_1_0_3_12_F_105| false)
(= |memory_model::choice_rf_3_4_0_29_F_106| false)
(= |memory_model::choice_rf_3_4_1_13_F_107| true)
(= |memory_model::choice_rf_0_56_0_32_F_108| false)
(= |memory_model::choice_rf_0_56_1_17_F_109| true)
(= |memory_model::choice_rf_0_77_0_32_F_110| false)
(= |memory_model::choice_rf_0_77_1_17_F_111| true)
(= |memory_model::choice_rf_1_9_0_32_F_112| true)
(= |memory_model::choice_rf_1_9_0_84_F_113| false)
(= |memory_model::choice_rf_1_25_0_32_F_114| false)
(= |memory_model::choice_rf_1_25_0_84_F_115| false)
(= |memory_model::choice_rf_1_25_1_17_F_116| true)
(= |memory_model::choice_rf_2_6_0_32_F_117| false)
(= |memory_model::choice_rf_2_6_0_84_F_118| false)
(= |memory_model::choice_rf_2_6_1_17_F_119| true)
(= |memory_model::choice_rf_3_6_0_32_F_120| false)
(= |memory_model::choice_rf_3_6_0_84_F_121| false)
(= |memory_model::choice_rf_3_6_1_17_F_122| true)
(= |memory_model::choice_rf_0_59_0_33_F_123| false)
(= |memory_model::choice_rf_0_59_1_15_F_124| false)
(= |memory_model::choice_rf_0_59_1_31_F_125| true)
(= |memory_model::choice_rf_0_59_2_12_F_126| false)
(= |memory_model::choice_rf_0_59_3_13_F_127| false)
(= |memory_model::choice_rf_0_72_0_33_F_128| false)
(= |memory_model::choice_rf_0_72_0_63_F_129| true)
(= |memory_model::choice_rf_0_72_1_15_F_130| false)
(= |memory_model::choice_rf_0_72_1_31_F_131| false)
(= |memory_model::choice_rf_0_72_2_12_F_132| false)
(= |memory_model::choice_rf_0_72_3_13_F_133| false)
(= |memory_model::choice_rf_1_8_0_33_F_134| true)
(= |memory_model::choice_rf_1_8_0_63_F_135| false)
(= |memory_model::choice_rf_1_8_0_82_F_136| false)
(= |memory_model::choice_rf_1_8_2_12_F_137| false)
(= |memory_model::choice_rf_1_8_3_13_F_138| false)
(= |memory_model::choice_rf_1_27_0_33_F_139| false)
(= |memory_model::choice_rf_1_27_0_63_F_140| false)
(= |memory_model::choice_rf_1_27_0_82_F_141| false)
(= |memory_model::choice_rf_1_27_1_15_F_142| false)
(= |memory_model::choice_rf_1_27_2_12_F_143| false)
(= |memory_model::choice_rf_1_27_3_13_F_144| true)
(= |memory_model::choice_rf_2_8_0_33_F_145| false)
(= |memory_model::choice_rf_2_8_0_63_F_146| false)
(= |memory_model::choice_rf_2_8_0_82_F_147| false)
(= |memory_model::choice_rf_2_8_1_15_F_148| true)
(= |memory_model::choice_rf_2_8_1_31_F_149| false)
(= |memory_model::choice_rf_2_8_3_13_F_150| false)
(= |memory_model::choice_rf_3_9_0_33_F_151| false)
(= |memory_model::choice_rf_3_9_0_63_F_152| false)
(= |memory_model::choice_rf_3_9_0_82_F_153| false)
(= |memory_model::choice_rf_3_9_1_15_F_154| false)
(= |memory_model::choice_rf_3_9_1_31_F_155| false)
(= |memory_model::choice_rf_3_9_2_12_F_156| true)
(= |memory_model::choice_rf_0_54_0_34_F_157| false)
(= |memory_model::choice_rf_0_54_1_18_F_158| true)
(= |memory_model::choice_rf_0_78_0_34_F_159| false)
(= |memory_model::choice_rf_0_78_1_18_F_160| true)
(= |memory_model::choice_rf_1_22_0_34_F_161| false)
(= |memory_model::choice_rf_1_22_0_83_F_162| false)
(= |memory_model::choice_rf_1_22_1_18_F_163| true)
(= |memory_model::choice_rf_2_3_0_34_F_164| false)
(= |memory_model::choice_rf_2_3_0_83_F_165| false)
(= |memory_model::choice_rf_2_3_1_18_F_166| true)
(= |memory_model::choice_rf_3_3_0_34_F_167| false)
(= |memory_model::choice_rf_3_3_0_83_F_168| false)
(= |memory_model::choice_rf_3_3_1_18_F_169| true)
(= |memory_model::choice_rf_0_55_0_35_F_170| false)
(= |memory_model::choice_rf_0_55_1_16_F_171| false)
(= |memory_model::choice_rf_0_55_1_30_F_172| true)
(= |memory_model::choice_rf_0_55_2_10_F_173| false)
(= |memory_model::choice_rf_0_55_3_11_F_174| false)
(= |memory_model::choice_rf_0_75_0_35_F_175| false)
(= |memory_model::choice_rf_0_75_0_62_F_176| true)
(= |memory_model::choice_rf_0_75_1_16_F_177| false)
(= |memory_model::choice_rf_0_75_1_30_F_178| false)
(= |memory_model::choice_rf_0_75_2_10_F_179| false)
(= |memory_model::choice_rf_0_75_3_11_F_180| false)
(= |memory_model::choice_rf_1_24_0_35_F_181| false)
(= |memory_model::choice_rf_1_24_0_62_F_182| false)
(= |memory_model::choice_rf_1_24_0_81_F_183| false)
(= |memory_model::choice_rf_1_24_1_16_F_184| false)
(= |memory_model::choice_rf_1_24_2_10_F_185| false)
(= |memory_model::choice_rf_1_24_3_11_F_186| true)
(= |memory_model::choice_rf_2_5_0_35_F_187| false)
(= |memory_model::choice_rf_2_5_0_62_F_188| false)
(= |memory_model::choice_rf_2_5_0_81_F_189| false)
(= |memory_model::choice_rf_2_5_1_16_F_190| true)
(= |memory_model::choice_rf_2_5_1_30_F_191| false)
(= |memory_model::choice_rf_2_5_3_11_F_192| false)
(= |memory_model::choice_rf_3_5_0_35_F_193| false)
(= |memory_model::choice_rf_3_5_0_62_F_194| false)
(= |memory_model::choice_rf_3_5_0_81_F_195| false)
(= |memory_model::choice_rf_3_5_1_16_F_196| false)
(= |memory_model::choice_rf_3_5_1_30_F_197| false)
(= |memory_model::choice_rf_3_5_2_10_F_198| true)
(= |memory_model::choice_rf_0_66_0_15_F_199| false)
(= |memory_model::choice_rf_0_67_0_16_F_200| false)
(= |memory_model::choice_ws-ext_0_10_1_36_T_201| true)
(= |memory_model::choice_ws-ext_0_10_2_17_T_202| true)
(= |memory_model::choice_ws-ext_0_10_3_18_T_203| true)
(= |memory_model::choice_ws-ext_1_36_2_17_T_204| false)
(= |memory_model::choice_ws-ext_1_36_3_18_T_205| false)
(= |memory_model::choice_ws-ext_2_17_3_18_T_206| true)
(= |memory_model::choice_ws-ext_0_17_1_20_F_207| true)
(= |memory_model::choice_ws-ext_0_17_2_0_F_208| true)
(= |memory_model::choice_ws-ext_1_20_2_0_F_209| true)
(= |memory_model::choice_ws-ext_0_11_1_34_F_210| true)
(= |memory_model::choice_ws-ext_0_11_2_15_F_211| true)
(= |memory_model::choice_ws-ext_0_11_3_16_F_212| true)
(= |memory_model::choice_ws-ext_1_34_2_15_F_213| false)
(= |memory_model::choice_ws-ext_1_34_3_16_F_214| false)
(= |memory_model::choice_ws-ext_2_15_3_16_F_215| true)
(= |memory_model::choice_ws-ext_0_12_3_1_F_216| true)
(= |memory_model::choice_ws-ext_0_18_2_1_F_217| true)
(= |memory_model::choice_ws-ext_0_19_1_32_F_218| true)
(= |memory_model::choice_ws-ext_0_19_2_13_F_219| true)
(= |memory_model::choice_ws-ext_0_19_3_2_F_220| true)
(= |memory_model::choice_ws-ext_0_19_3_14_F_221| true)
(= |memory_model::choice_ws-ext_0_64_1_32_F_222| false)
(= |memory_model::choice_ws-ext_0_64_2_13_F_223| false)
(= |memory_model::choice_ws-ext_0_64_3_2_F_224| false)
(= |memory_model::choice_ws-ext_0_64_3_14_F_225| false)
(= |memory_model::choice_ws-ext_0_85_1_32_F_226| false)
(= |memory_model::choice_ws-ext_0_85_2_13_F_227| false)
(= |memory_model::choice_ws-ext_0_85_3_2_F_228| false)
(= |memory_model::choice_ws-ext_0_85_3_14_F_229| false)
(= |memory_model::choice_ws-ext_1_32_2_13_F_230| false)
(= |memory_model::choice_ws-ext_1_32_3_2_F_231| false)
(= |memory_model::choice_ws-ext_1_32_3_14_F_232| false)
(= |memory_model::choice_ws-ext_2_13_3_2_F_233| true)
(= |memory_model::choice_ws-ext_2_13_3_14_F_234| true)
(= |memory_model::choice_ws-ext_0_23_1_10_F_235| true)
(= |memory_model::choice_ws-ext_0_23_1_29_F_236| true)
(= |memory_model::choice_ws-ext_0_24_2_9_F_237| true)
(= |memory_model::choice_ws-ext_0_25_3_10_F_238| true)
(= |memory_model::choice_ws-ext_0_26_1_12_F_239| true)
(= |memory_model::choice_ws-ext_0_60_1_12_F_240| false)
(= |memory_model::choice_ws-ext_0_79_1_12_F_241| false)
(= |memory_model::choice_ws-ext_0_27_1_11_F_242| true)
(= |memory_model::choice_ws-ext_0_27_1_28_F_243| true)
(= |memory_model::choice_ws-ext_0_28_1_14_F_244| true)
(= |memory_model::choice_ws-ext_0_28_2_11_F_245| true)
(= |memory_model::choice_ws-ext_1_14_2_11_F_246| true)
(= |memory_model::choice_ws-ext_0_29_1_13_F_247| true)
(= |memory_model::choice_ws-ext_0_29_3_12_F_248| true)
(= |memory_model::choice_ws-ext_1_13_3_12_F_249| true)
(= |memory_model::choice_ws-ext_0_32_1_17_F_250| true)
(= |memory_model::choice_ws-ext_0_84_1_17_F_251| false)
(= |memory_model::choice_ws-ext_0_33_1_15_F_252| true)
(= |memory_model::choice_ws-ext_0_33_1_31_F_253| true)
(= |memory_model::choice_ws-ext_0_33_2_12_F_254| true)
(= |memory_model::choice_ws-ext_0_33_3_13_F_255| true)
(= |memory_model::choice_ws-ext_0_63_1_15_F_256| false)
(= |memory_model::choice_ws-ext_0_63_1_31_F_257| false)
(= |memory_model::choice_ws-ext_0_63_2_12_F_258| false)
(= |memory_model::choice_ws-ext_0_63_3_13_F_259| false)
(= |memory_model::choice_ws-ext_0_82_1_15_F_260| false)
(= |memory_model::choice_ws-ext_0_82_1_31_F_261| false)
(= |memory_model::choice_ws-ext_0_82_2_12_F_262| false)
(= |memory_model::choice_ws-ext_0_82_3_13_F_263| false)
(= |memory_model::choice_ws-ext_1_15_2_12_F_264| true)
(= |memory_model::choice_ws-ext_1_15_3_13_F_265| true)
(= |memory_model::choice_ws-ext_1_31_2_12_F_266| false)
(= |memory_model::choice_ws-ext_1_31_3_13_F_267| false)
(= |memory_model::choice_ws-ext_2_12_3_13_F_268| true)
(= |memory_model::choice_ws-ext_0_34_1_18_F_269| true)
(= |memory_model::choice_ws-ext_0_83_1_18_F_270| false)
(= |memory_model::choice_ws-ext_0_35_1_16_F_271| true)
(= |memory_model::choice_ws-ext_0_35_1_30_F_272| true)
(= |memory_model::choice_ws-ext_0_35_2_10_F_273| true)
(= |memory_model::choice_ws-ext_0_35_3_11_F_274| true)
(= |memory_model::choice_ws-ext_0_62_1_16_F_275| false)
(= |memory_model::choice_ws-ext_0_62_1_30_F_276| false)
(= |memory_model::choice_ws-ext_0_62_2_10_F_277| false)
(= |memory_model::choice_ws-ext_0_62_3_11_F_278| false)
(= |memory_model::choice_ws-ext_0_81_1_16_F_279| false)
(= |memory_model::choice_ws-ext_0_81_1_30_F_280| false)
(= |memory_model::choice_ws-ext_0_81_2_10_F_281| false)
(= |memory_model::choice_ws-ext_0_81_3_11_F_282| false)
(= |memory_model::choice_ws-ext_1_16_2_10_F_283| true)
(= |memory_model::choice_ws-ext_1_16_3_11_F_284| true)
(= |memory_model::choice_ws-ext_1_30_2_10_F_285| false)
(= |memory_model::choice_ws-ext_1_30_3_11_F_286| false)
(= |memory_model::choice_ws-ext_2_10_3_11_F_287| true)
(= |main$tmp_guard0#3| #b00000001)
(= |__CPROVER_next_thread_id#3| #b00000000000000000000000000000001)
(= |__CPROVER_next_thread_id#6| #b00000000000000000000000000000010)
(= |__unbuffered_cnt#2| #b00000000000000000000000000000011)
(= |z$w_buff0_used#2| #b00000000)
(= |z$r_buff0_thd0#2| #b00000000)
(= |z$w_buff0#2| #b00000000000000000000000000000010)
(= |z$w_buff1_used#2| #b00000000)
(= |z$r_buff1_thd0#2| #b00000000)
(= |z$w_buff1#2| #b00000000000000000000000000000000)
(= |z#2| #b00000000000000000000000000000010)
(= |z#4| #b00000000000000000000000000000010)
(= |z$w_buff0_used#6| #b00000000)
(= |z$w_buff1_used#6| #b00000000)
(= |z$r_buff0_thd0#8| #b00000000)
(= |z$r_buff1_thd0#7| #b00000000)
(= |nondet_symex::nondet0| #b00000000000000000000000000000000)
(= |weak$$choice0#2| #b00000000)
(= |weak$$choice0#3| #b10000000)
(= |nondet_symex::nondet1| #b10000000000000000000000000000000)
(= |weak$$choice2#2| #b00000001)
(= |weak$$choice2#3| #b10000000)
(= |z$flush_delayed#2| #b00000001)
(= |z$flush_delayed#3| #b10000000)
(= |z#6| #b00000000000000000000000000000010)
(= |z$mem_tmp#2| #b00000000000000000000000000000010)
(= |z$mem_tmp#3| #b10000000000000000000000000000000)
(= |z$w_buff0_used#11| #b00000000)
(= |z$r_buff0_thd0#11| #b00000000)
(= |z$w_buff1_used#9| #b00000000)
(= |z$r_buff1_thd0#9| #b00000000)
(= |z$w_buff0#4| #b00000000000000000000000000000010)
(= |z$w_buff1#4| #b00000000000000000000000000000000)
(= |z#9| #b00000000000000000000000000000010)
(= |z$w_buff0#10| #b00000000000000000000000000000010)
(= |z$w_buff1#10| #b00000000000000000000000000000000)
(= |z$w_buff0_used#23| #b00000000)
(= |z$w_buff1_used#17| #b00000000)
(= |z$r_buff0_thd0#33| #b00000000)
(= |z$r_buff1_thd0#19| #b00000000)
(= |x#2| #b00000000000000000000000000000010)
(= |__unbuffered_p2_EAX#2| #b00000000000000000000000000000001)
(= |main$tmp_guard1#2| #b00000000)
(= |main$tmp_guard1#3| #b10000000)
(= |z#13| #b00000000000000000000000000000010)
(= |z$flush_delayed#6| #b00000000)
(= |main$tmp_guard1#6| #b00000000)
(= |pthread_create::1::this_thread_id!1@0#0| #b00000000000000000000000000000000)
(= |z$w_buff0#12| #b00000000000000000000000000000000)
(= |z$w_buff0_used#31| #b00000000)
(= |z$r_buff0_thd0#38| #b00000000)
(= |z$r_buff1_thd0#21| #b00000000)
(= |z$r_buff1_thd0#22| #b10000000)
(= |z$r_buff0_thd1#2| #b00000000)
(= |z$r_buff1_thd1#2| #b00000000)
(= |z$r_buff1_thd1#3| #b10000000)
(= |z$r_buff0_thd2#2| #b00000000)
(= |z$r_buff1_thd2#2| #b00000000)
(= |z$r_buff1_thd2#3| #b10000000)
(= |z$r_buff0_thd3#2| #b00000000)
(= |z$r_buff1_thd3#2| #b00000000)
(= |z$r_buff1_thd3#3| #b10000000)
(= |z$r_buff0_thd1#4| #b00000001)
(= |x#4| #b00000000000000000000000000000001)
(= |x#5| #b10000000000000000000000000000000)
(= |z$w_buff0_used#34| #b00000001)
(= |z$r_buff0_thd1#6| #b00000001)
(= |z$w_buff0#15| #b00000000000000000000000000000010)
(= |z$w_buff1_used#22| #b00000000)
(= |z$r_buff1_thd1#5| #b00000000)
(= |z$w_buff1#13| #b00000000000000000000000000000000)
(= |z#15| #b00000000000000000000000000000001)
(= |z#17| #b00000000000000000000000000000010)
(= |z$w_buff0_used#38| #b00000000)
(= |z$w_buff1_used#26| #b00000000)
(= |z$r_buff0_thd1#12| #b00000001)
(= |z$r_buff1_thd1#10| #b00000000)
(= |__unbuffered_cnt#4| #b00000000000000000000000000000010)
(= |__unbuffered_cnt#6| #b00000000000000000000000000000011)
(= |pthread_create::1::this_thread_id!2@0#0| #b00000000000000000000000000000000)
(= |z$w_buff0_used#43| #b00000001)
(= |z$r_buff0_thd2#4| #b00000000)
(= |z$w_buff0#17| #b00000000000000000000000000000010)
(= |z$w_buff1_used#29| #b00000000)
(= |z$r_buff1_thd2#5| #b00000000)
(= |z$w_buff1#15| #b00000000000000000000000000000000)
(= |z#19| #b00000000000000000000000000000000)
(= |__unbuffered_cnt#8| #b00000000000000000000000000000000)
(= |pthread_create::1::this_thread_id!3@0#0| #b10000000000000000000000000000000)
(= |y#3| #b00000000000000000000000000000001)
(= |z$w_buff0_used#46| #b00000001)
(= |z$r_buff0_thd3#4| #b00000000)
(= |z$w_buff0#19| #b00000000000000000000000000000010)
(= |z$w_buff1_used#32| #b00000000)
(= |z$r_buff1_thd3#5| #b00000000)
(= |z$w_buff1#17| #b00000000000000000000000000000000)
(= |z#23| #b00000000000000000000000000000001)
(= |__unbuffered_cnt#11| #b00000000000000000000000000000001)
(= |__CPROVER_threads_exited#1$wclk$8| #b00001010)
(= |__CPROVER_threads_exited#2$rclk$8| #b11111000)
(= |__CPROVER_threads_exited#5$wclk$8| #b11110011)
(= |__CPROVER_threads_exited#7$wclk$8| #b11110100)
(= |__CPROVER_threads_exited#4$rclk$8| #b11110010)
(= |__CPROVER_threads_exited#3$wclk$8| #b11111001)
(= |__CPROVER_threads_exited#6$rclk$8| #b11101001)
(= |x#6$wclk$8| #b11010001)
(= |x#2$rclk$8| #b11111010)
(= |x#7$wclk$8| #b11011100)
(= |x#1$wclk$8| #b00101010)
(= |x#5$rclk$8| #b11010001)
(= |__unbuffered_cnt#7$wclk$8| #b11110010)
(= |__unbuffered_cnt#2$rclk$8| #b11110011)
(= |__unbuffered_cnt#10$wclk$8| #b11100000)
(= |__unbuffered_cnt#13$wclk$8| #b11101000)
(= |__unbuffered_cnt#1$wclk$8| #b00001011)
(= |__unbuffered_cnt#4$rclk$8| #b11110010)
(= |__unbuffered_cnt#8$rclk$8| #b11100000)
(= |__unbuffered_cnt#11$rclk$8| #b11101000)
(= |__unbuffered_p2_EAX#4$wclk$8| #b11100001)
(= |__unbuffered_p2_EAX#2$rclk$8| #b11111010)
(= |main$tmp_guard1#5| #b00000000)
(= |y#1$wclk$8| #b00101011)
(= |y#3$rclk$8| #b11100001)
(= |y#2$wclk$8| #b11011110)
(= |z#18$wclk$8| #b11100111)
(= |z#2$rclk$8| #b11111001)
(= |z#21$wclk$8| #b11011111)
(= |z#22$wclk$8| #b11100010)
(= |z#25$wclk$8| #b11100011)
(= |z#6$rclk$8| #b11111010)
(= |z#1$wclk$8| #b00111010)
(= |z#15$rclk$8| #b11100111)
(= |z#5$wclk$8| #b11111001)
(= |z#14$wclk$8| #b11111010)
(= |z#19$rclk$8| #b11011111)
(= |z#23$rclk$8| #b11100011)
(= |z$r_buff0_thd0#1$wclk$8| #b01001001)
(= |z$r_buff0_thd0#38$rclk$8| #b10111011)
(= |z$r_buff0_thd0#10$wclk$8| #b11111001)
(= |z$r_buff0_thd0#37$wclk$8| #b11111010)
(= |z$r_buff0_thd1#1$wclk$8| #b01001011)
(= |z$r_buff0_thd1#2$rclk$8| #b10111011)
(= |z$r_buff0_thd1#6$rclk$8| #b11100111)
(= |z$r_buff0_thd2#1$wclk$8| #b01011010)
(= |z$r_buff0_thd2#2$rclk$8| #b10111011)
(= |z$r_buff0_thd2#6$wclk$8| #b11011111)
(= |z$r_buff0_thd2#4$rclk$8| #b11011111)
(= |z$r_buff0_thd3#1$wclk$8| #b01011011)
(= |z$r_buff0_thd3#2$rclk$8| #b10111011)
(= |z$r_buff0_thd3#6$wclk$8| #b11100011)
(= |z$r_buff0_thd3#4$rclk$8| #b11100011)
(= |z$r_buff1_thd0#23$wclk$8| #b10111011)
(= |z$r_buff1_thd0#2$rclk$8| #b11111001)
(= |z$r_buff1_thd0#9$rclk$8| #b11111010)
(= |z$r_buff1_thd0#1$wclk$8| #b01101000)
(= |z$r_buff1_thd0#22$rclk$8| #b10111011)
(= |z$r_buff1_thd0#8$wclk$8| #b11111001)
(= |z$r_buff1_thd0#20$wclk$8| #b11111010)
(= |z$r_buff1_thd1#1$wclk$8| #b01101001)
(= |z$r_buff1_thd1#3$rclk$8| #b10111011)
(= |z$r_buff1_thd1#5$rclk$8| #b11100111)
(= |z$r_buff1_thd2#1$wclk$8| #b01101011)
(= |z$r_buff1_thd2#3$rclk$8| #b10111011)
(= |z$r_buff1_thd2#7$wclk$8| #b11011111)
(= |z$r_buff1_thd2#5$rclk$8| #b11011111)
(= |z$r_buff1_thd2#4$wclk$8| #b10111011)
(= |z$r_buff1_thd3#1$wclk$8| #b01111010)
(= |z$r_buff1_thd3#3$rclk$8| #b10111011)
(= |z$r_buff1_thd3#7$wclk$8| #b11100011)
(= |z$r_buff1_thd3#5$rclk$8| #b11100011)
(= |z$r_buff1_thd3#4$wclk$8| #b10111011)
(= |z$w_buff0#14$wclk$8| #b10111011)
(= |z$w_buff0#2$rclk$8| #b11111001)
(= |z$w_buff0#4$rclk$8| #b11111010)
(= |z$w_buff0#1$wclk$8| #b10000001)
(= |z$w_buff0#12$rclk$8| #b10111011)
(= |z$w_buff0#11$wclk$8| #b11111010)
(= |z$w_buff0#15$rclk$8| #b11100111)
(= |z$w_buff0#17$rclk$8| #b11011111)
(= |z$w_buff0#19$rclk$8| #b11100011)
(= |z$w_buff0_used#33$wclk$8| #b10111011)
(= |z$w_buff0_used#2$rclk$8| #b11111001)
(= |z$w_buff0_used#42$wclk$8| #b11100111)
(= |z$w_buff0_used#45$wclk$8| #b11011111)
(= |z$w_buff0_used#48$wclk$8| #b11100011)
(= |z$w_buff0_used#11$rclk$8| #b11111010)
(= |z$w_buff0_used#1$wclk$8| #b10000011)
(= |z$w_buff0_used#31$rclk$8| #b10111011)
(= |z$w_buff0_used#10$wclk$8| #b11111001)
(= |z$w_buff0_used#30$wclk$8| #b11111010)
(= |z$w_buff0_used#34$rclk$8| #b11100111)
(= |z$w_buff0_used#43$rclk$8| #b11011111)
(= |z$w_buff0_used#46$rclk$8| #b11100011)
(= |z$w_buff1#12$wclk$8| #b10111011)
(= |z$w_buff1#2$rclk$8| #b11111001)
(= |z$w_buff1#4$rclk$8| #b11111010)
(= |z$w_buff1#1$wclk$8| #b10000110)
(= |z$w_buff1#13$rclk$8| #b11100111)
(= |z$w_buff1#11$wclk$8| #b11111010)
(= |z$w_buff1#15$rclk$8| #b11011111)
(= |z$w_buff1#17$rclk$8| #b11100011)
(= |z$w_buff1_used#21$wclk$8| #b10111011)
(= |z$w_buff1_used#2$rclk$8| #b11111001)
(= |z$w_buff1_used#28$wclk$8| #b11100111)
(= |z$w_buff1_used#31$wclk$8| #b11011111)
(= |z$w_buff1_used#34$wclk$8| #b11100011)
(= |z$w_buff1_used#9$rclk$8| #b11111010)
(= |z$w_buff1_used#1$wclk$8| #b10001011)
(= |z$w_buff1_used#22$rclk$8| #b11100111)
(= |z$w_buff1_used#8$wclk$8| #b11111001)
(= |z$w_buff1_used#20$wclk$8| #b11111010)
(= |z$w_buff1_used#29$rclk$8| #b11011111)
(= |z$w_buff1_used#32$rclk$8| #b11100011)
(= |__unbuffered_p2_EAX#1$wclk$8| #b00011000)
(= |z$r_buff0_thd1#5$wclk$8| #b10111011)
(= |z$r_buff0_thd1#14$wclk$8| #b11100111)
(= |z$r_buff1_thd1#4$wclk$8| #b10111011)
(= |z$r_buff1_thd1#11$wclk$8| #b11100111)
(= t1$39$spwnclk$8 #b10101111)
(= t1$44$spwnclk$8 #b11010111)
(= t1$49$spwnclk$8 #b11100000)
(= |main::1::t2034!0@1$wclk$8| #b00000000)
(= |main::1::t2035!0@1$wclk$8| #b00000001)
(= |__CPROVER_dead_object#1$wclk$8| #b00000010)
(= |__CPROVER_deallocated#1$wclk$8| #b00000011)
(= |__CPROVER_malloc_is_new_array#1$wclk$8| #b00000100)
(= |__CPROVER_malloc_object#1$wclk$8| #b00000101)
(= |__CPROVER_malloc_size#1$wclk$8| #b00000110)
(= |__CPROVER_memory_leak#1$wclk$8| #b00000111)
(= |__CPROVER_next_thread_id#1$wclk$8| #b00001000)
(= |__CPROVER_pipe_count#1$wclk$8| #b00001001)
(= |main$tmp_guard0#1$wclk$8| #b00011001)
(= |main$tmp_guard1#1$wclk$8| #b00011010)
(= |weak$$choice0#1$wclk$8| #b00011011)
(= |weak$$choice2#1$wclk$8| #b00101000)
(= |z$flush_delayed#1$wclk$8| #b00111011)
(= |z$mem_tmp#1$wclk$8| #b01001000)
(= |z$read_delayed#1$wclk$8| #b01111011)
(= |z$read_delayed_var#1$wclk$8| #b10000000)
(= |main::1::t2033!0@1#1$wclk$8| #b10011010)
(= |__CPROVER_next_thread_id#2$wclk$8| #b10011011)
(= |main::1::t2033!0@1#2$wclk$8| #b10011110)
(= |main::1::t2034!0@1#1$wclk$8| #b11001101)
(= |__CPROVER_next_thread_id#3$rclk$8| #b11001110)
(= |__CPROVER_next_thread_id#5$wclk$8| #b11001110)
(= |main::1::t2034!0@1#2$wclk$8| #b11001111)
(= |main::1::t2035!0@1#1$wclk$8| #b11011010)
(= |__CPROVER_next_thread_id#6$rclk$8| #b11011100)
(= |__CPROVER_next_thread_id#8$wclk$8| #b11011100)
(= |main::1::t2035!0@1#2$wclk$8| #b11011110)
(= |main$tmp_guard0#2$wclk$8| #b11110011)
(= |main$tmp_guard0#3$rclk$8| #b11111000)
(= |z$r_buff0_thd0#2$rclk$8| #b11111001)
(= |main$tmp_guard1#3$rclk$8| #b11111010)
(= |weak$$choice0#3$rclk$8| #b11111010)
(= |weak$$choice2#3$rclk$8| #b11111010)
(= |z$flush_delayed#3$rclk$8| #b11111010)
(= |z$mem_tmp#3$rclk$8| #b11111010)
(= |z$r_buff0_thd0#11$rclk$8| #b11111010)
(= |z$mem_tmp#5$wclk$8| #b11111010)
(= |z$flush_delayed#7$wclk$8| #b11111010)
(= |main$tmp_guard1#4$wclk$8| #b11111010)
(= |weak$$choice2#11$wclk$8| #b11111010)
(= |weak$$choice0#4$wclk$8| #b11111010)
(= |main$tmp_guard1#5$rclk$8| #b11111100)
(= |main$tmp_guard1#6$rclk$8| #b11111101)
(= array_of.0 @fun_9)
(= |__CPROVER_threads_exited#2| @fun_7)
(= |__CPROVER_threads_exited#4| @fun_9)
(= |__CPROVER_threads_exited#6| @fun_9)
(function @fun_9
 (type (Array (_ BitVec 32) (_ BitVec 1)))
 (= (@fun_9 #b10000000000000000000000000000000) #b0)
 (default #b1))
(function @fun_7
 (type (Array (_ BitVec 32) (_ BitVec 1)))
 (default #b1))

real	0m0.024s
user	0m0.020s
sys	0m0.004s
State: AC Run_time: 0.025686025619506836